\ Model teste
\ LP format - for model browsing. Use MPS format to capture full model detail.
Minimize
 
Subject To
 R_pos1: x_1,1,1 + x_1,1,2 + x_1,1,3 + x_1,1,4 + x_1,1,5 + x_1,1,6
   + x_1,1,7 + x_1,1,8 + x_1,1,9 = 1
 R_pos2: x_1,2,1 + x_1,2,2 + x_1,2,3 + x_1,2,4 + x_1,2,5 + x_1,2,6
   + x_1,2,7 + x_1,2,8 + x_1,2,9 = 1
 R_pos3: x_1,4,1 + x_1,4,2 + x_1,4,3 + x_1,4,4 + x_1,4,5 + x_1,4,6
   + x_1,4,7 + x_1,4,8 + x_1,4,9 = 1
 R_pos4: x_1,5,1 + x_1,5,2 + x_1,5,3 + x_1,5,4 + x_1,5,5 + x_1,5,6
   + x_1,5,7 + x_1,5,8 + x_1,5,9 = 1
 R_pos5: x_1,8,1 + x_1,8,2 + x_1,8,3 + x_1,8,4 + x_1,8,5 + x_1,8,6
   + x_1,8,7 + x_1,8,8 + x_1,8,9 = 1
 R_pos6: x_1,9,1 + x_1,9,2 + x_1,9,3 + x_1,9,4 + x_1,9,5 + x_1,9,6
   + x_1,9,7 + x_1,9,8 + x_1,9,9 = 1
 R_pos7: x_2,1,1 + x_2,1,2 + x_2,1,3 + x_2,1,4 + x_2,1,5 + x_2,1,6
   + x_2,1,7 + x_2,1,8 + x_2,1,9 = 1
 R_pos8: x_2,2,1 + x_2,2,2 + x_2,2,3 + x_2,2,4 + x_2,2,5 + x_2,2,6
   + x_2,2,7 + x_2,2,8 + x_2,2,9 = 1
 R_pos9: x_2,4,1 + x_2,4,2 + x_2,4,3 + x_2,4,4 + x_2,4,5 + x_2,4,6
   + x_2,4,7 + x_2,4,8 + x_2,4,9 = 1
 R_pos10: x_2,6,1 + x_2,6,2 + x_2,6,3 + x_2,6,4 + x_2,6,5 + x_2,6,6
   + x_2,6,7 + x_2,6,8 + x_2,6,9 = 1
 R_pos11: x_2,8,1 + x_2,8,2 + x_2,8,3 + x_2,8,4 + x_2,8,5 + x_2,8,6
   + x_2,8,7 + x_2,8,8 + x_2,8,9 = 1
 R_pos12: x_2,9,1 + x_2,9,2 + x_2,9,3 + x_2,9,4 + x_2,9,5 + x_2,9,6
   + x_2,9,7 + x_2,9,8 + x_2,9,9 = 1
 R_pos13: x_3,3,1 + x_3,3,2 + x_3,3,3 + x_3,3,4 + x_3,3,5 + x_3,3,6
   + x_3,3,7 + x_3,3,8 + x_3,3,9 = 1
 R_pos14: x_3,6,1 + x_3,6,2 + x_3,6,3 + x_3,6,4 + x_3,6,5 + x_3,6,6
   + x_3,6,7 + x_3,6,8 + x_3,6,9 = 1
 R_pos15: x_3,8,1 + x_3,8,2 + x_3,8,3 + x_3,8,4 + x_3,8,5 + x_3,8,6
   + x_3,8,7 + x_3,8,8 + x_3,8,9 = 1
 R_pos16: x_3,9,1 + x_3,9,2 + x_3,9,3 + x_3,9,4 + x_3,9,5 + x_3,9,6
   + x_3,9,7 + x_3,9,8 + x_3,9,9 = 1
 R_pos17: x_4,1,1 + x_4,1,2 + x_4,1,3 + x_4,1,4 + x_4,1,5 + x_4,1,6
   + x_4,1,7 + x_4,1,8 + x_4,1,9 = 1
 R_pos18: x_4,5,1 + x_4,5,2 + x_4,5,3 + x_4,5,4 + x_4,5,5 + x_4,5,6
   + x_4,5,7 + x_4,5,8 + x_4,5,9 = 1
 R_pos19: x_4,9,1 + x_4,9,2 + x_4,9,3 + x_4,9,4 + x_4,9,5 + x_4,9,6
   + x_4,9,7 + x_4,9,8 + x_4,9,9 = 1
 R_pos20: x_5,2,1 + x_5,2,2 + x_5,2,3 + x_5,2,4 + x_5,2,5 + x_5,2,6
   + x_5,2,7 + x_5,2,8 + x_5,2,9 = 1
 R_pos21: x_5,4,1 + x_5,4,2 + x_5,4,3 + x_5,4,4 + x_5,4,5 + x_5,4,6
   + x_5,4,7 + x_5,4,8 + x_5,4,9 = 1
 R_pos22: x_5,7,1 + x_5,7,2 + x_5,7,3 + x_5,7,4 + x_5,7,5 + x_5,7,6
   + x_5,7,7 + x_5,7,8 + x_5,7,9 = 1
 R_pos23: x_5,9,1 + x_5,9,2 + x_5,9,3 + x_5,9,4 + x_5,9,5 + x_5,9,6
   + x_5,9,7 + x_5,9,8 + x_5,9,9 = 1
 R_pos24: x_6,4,1 + x_6,4,2 + x_6,4,3 + x_6,4,4 + x_6,4,5 + x_6,4,6
   + x_6,4,7 + x_6,4,8 + x_6,4,9 = 1
 R_pos25: x_6,5,1 + x_6,5,2 + x_6,5,3 + x_6,5,4 + x_6,5,5 + x_6,5,6
   + x_6,5,7 + x_6,5,8 + x_6,5,9 = 1
 R_pos26: x_6,6,1 + x_6,6,2 + x_6,6,3 + x_6,6,4 + x_6,6,5 + x_6,6,6
   + x_6,6,7 + x_6,6,8 + x_6,6,9 = 1
 R_pos27: x_6,7,1 + x_6,7,2 + x_6,7,3 + x_6,7,4 + x_6,7,5 + x_6,7,6
   + x_6,7,7 + x_6,7,8 + x_6,7,9 = 1
 R_pos28: x_6,8,1 + x_6,8,2 + x_6,8,3 + x_6,8,4 + x_6,8,5 + x_6,8,6
   + x_6,8,7 + x_6,8,8 + x_6,8,9 = 1
 R_pos29: x_6,9,1 + x_6,9,2 + x_6,9,3 + x_6,9,4 + x_6,9,5 + x_6,9,6
   + x_6,9,7 + x_6,9,8 + x_6,9,9 = 1
 R_pos30: x_7,1,1 + x_7,1,2 + x_7,1,3 + x_7,1,4 + x_7,1,5 + x_7,1,6
   + x_7,1,7 + x_7,1,8 + x_7,1,9 = 1
 R_pos31: x_7,2,1 + x_7,2,2 + x_7,2,3 + x_7,2,4 + x_7,2,5 + x_7,2,6
   + x_7,2,7 + x_7,2,8 + x_7,2,9 = 1
 R_pos32: x_7,5,1 + x_7,5,2 + x_7,5,3 + x_7,5,4 + x_7,5,5 + x_7,5,6
   + x_7,5,7 + x_7,5,8 + x_7,5,9 = 1
 R_pos33: x_8,1,1 + x_8,1,2 + x_8,1,3 + x_8,1,4 + x_8,1,5 + x_8,1,6
   + x_8,1,7 + x_8,1,8 + x_8,1,9 = 1
 R_pos34: x_8,3,1 + x_8,3,2 + x_8,3,3 + x_8,3,4 + x_8,3,5 + x_8,3,6
   + x_8,3,7 + x_8,3,8 + x_8,3,9 = 1
 R_pos35: x_8,6,1 + x_8,6,2 + x_8,6,3 + x_8,6,4 + x_8,6,5 + x_8,6,6
   + x_8,6,7 + x_8,6,8 + x_8,6,9 = 1
 R_pos36: x_8,8,1 + x_8,8,2 + x_8,8,3 + x_8,8,4 + x_8,8,5 + x_8,8,6
   + x_8,8,7 + x_8,8,8 + x_8,8,9 = 1
 R_pos37: x_9,2,1 + x_9,2,2 + x_9,2,3 + x_9,2,4 + x_9,2,5 + x_9,2,6
   + x_9,2,7 + x_9,2,8 + x_9,2,9 = 1
 R_pos38: x_9,3,1 + x_9,3,2 + x_9,3,3 + x_9,3,4 + x_9,3,5 + x_9,3,6
   + x_9,3,7 + x_9,3,8 + x_9,3,9 = 1
 R_pos39: x_9,5,1 + x_9,5,2 + x_9,5,3 + x_9,5,4 + x_9,5,5 + x_9,5,6
   + x_9,5,7 + x_9,5,8 + x_9,5,9 = 1
 R_pos40: x_9,6,1 + x_9,6,2 + x_9,6,3 + x_9,6,4 + x_9,6,5 + x_9,6,6
   + x_9,6,7 + x_9,6,8 + x_9,6,9 = 1
 R_col41: x_1,1,1 + x_2,1,1 + x_4,1,1 + x_7,1,1 + x_8,1,1 = 1
 R_col42: x_1,1,2 + x_2,1,2 + x_4,1,2 + x_7,1,2 + x_8,1,2 = 1
 R_col43: x_1,1,4 + x_2,1,4 + x_4,1,4 + x_7,1,4 + x_8,1,4 = 1
 R_col44: x_1,1,5 + x_2,1,5 + x_4,1,5 + x_7,1,5 + x_8,1,5 = 1
 R_col45: x_1,1,6 + x_2,1,6 + x_4,1,6 + x_7,1,6 + x_8,1,6 = 1
 R_col46: x_1,2,2 + x_2,2,2 + x_5,2,2 + x_7,2,2 + x_9,2,2 = 1
 R_col47: x_1,2,3 + x_2,2,3 + x_5,2,3 + x_7,2,3 + x_9,2,3 = 1
 R_col48: x_1,2,5 + x_2,2,5 + x_5,2,5 + x_7,2,5 + x_9,2,5 = 1
 R_col49: x_1,2,6 + x_2,2,6 + x_5,2,6 + x_7,2,6 + x_9,2,6 = 1
 R_col50: x_1,2,7 + x_2,2,7 + x_5,2,7 + x_7,2,7 + x_9,2,7 = 1
 R_col51: x_3,3,4 + x_8,3,4 + x_9,3,4 = 1
 R_col52: x_3,3,5 + x_8,3,5 + x_9,3,5 = 1
 R_col53: x_3,3,8 + x_8,3,8 + x_9,3,8 = 1
 R_col54: x_1,4,1 + x_2,4,1 + x_5,4,1 + x_6,4,1 = 1
 R_col55: x_1,4,3 + x_2,4,3 + x_5,4,3 + x_6,4,3 = 1
 R_col56: x_1,4,6 + x_2,4,6 + x_5,4,6 + x_6,4,6 = 1
 R_col57: x_1,4,7 + x_2,4,7 + x_5,4,7 + x_6,4,7 = 1
 R_col58: x_1,5,2 + x_4,5,2 + x_6,5,2 + x_7,5,2 + x_9,5,2 = 1
 R_col59: x_1,5,3 + x_4,5,3 + x_6,5,3 + x_7,5,3 + x_9,5,3 = 1
 R_col60: x_1,5,4 + x_4,5,4 + x_6,5,4 + x_7,5,4 + x_9,5,4 = 1
 R_col61: x_1,5,5 + x_4,5,5 + x_6,5,5 + x_7,5,5 + x_9,5,5 = 1
 R_col62: x_1,5,6 + x_4,5,6 + x_6,5,6 + x_7,5,6 + x_9,5,6 = 1
 R_col63: x_2,6,1 + x_3,6,1 + x_6,6,1 + x_8,6,1 + x_9,6,1 = 1
 R_col64: x_2,6,3 + x_3,6,3 + x_6,6,3 + x_8,6,3 + x_9,6,3 = 1
 R_col65: x_2,6,5 + x_3,6,5 + x_6,6,5 + x_8,6,5 + x_9,6,5 = 1
 R_col66: x_2,6,7 + x_3,6,7 + x_6,6,7 + x_8,6,7 + x_9,6,7 = 1
 R_col67: x_2,6,8 + x_3,6,8 + x_6,6,8 + x_8,6,8 + x_9,6,8 = 1
 R_col68: x_5,7,2 + x_6,7,2 = 1
 R_col69: x_5,7,5 + x_6,7,5 = 1
 R_col70: x_1,8,1 + x_2,8,1 + x_3,8,1 + x_6,8,1 + x_8,8,1 = 1
 R_col71: x_1,8,3 + x_2,8,3 + x_3,8,3 + x_6,8,3 + x_8,8,3 = 1
 R_col72: x_1,8,4 + x_2,8,4 + x_3,8,4 + x_6,8,4 + x_8,8,4 = 1
 R_col73: x_1,8,7 + x_2,8,7 + x_3,8,7 + x_6,8,7 + x_8,8,7 = 1
 R_col74: x_1,8,8 + x_2,8,8 + x_3,8,8 + x_6,8,8 + x_8,8,8 = 1
 R_col75: x_1,9,1 + x_2,9,1 + x_3,9,1 + x_4,9,1 + x_5,9,1 + x_6,9,1 = 1
 R_col76: x_1,9,2 + x_2,9,2 + x_3,9,2 + x_4,9,2 + x_5,9,2 + x_6,9,2 = 1
 R_col77: x_1,9,4 + x_2,9,4 + x_3,9,4 + x_4,9,4 + x_5,9,4 + x_6,9,4 = 1
 R_col78: x_1,9,5 + x_2,9,5 + x_3,9,5 + x_4,9,5 + x_5,9,5 + x_6,9,5 = 1
 R_col79: x_1,9,7 + x_2,9,7 + x_3,9,7 + x_4,9,7 + x_5,9,7 + x_6,9,7 = 1
 R_col80: x_1,9,9 + x_2,9,9 + x_3,9,9 + x_4,9,9 + x_5,9,9 + x_6,9,9 = 1
 R_row81: x_1,1,1 + x_1,2,1 + x_1,4,1 + x_1,5,1 + x_1,8,1 + x_1,9,1 = 1
 R_row82: x_1,1,2 + x_1,2,2 + x_1,4,2 + x_1,5,2 + x_1,8,2 + x_1,9,2 = 1
 R_row83: x_1,1,4 + x_1,2,4 + x_1,4,4 + x_1,5,4 + x_1,8,4 + x_1,9,4 = 1
 R_row84: x_1,1,5 + x_1,2,5 + x_1,4,5 + x_1,5,5 + x_1,8,5 + x_1,9,5 = 1
 R_row85: x_1,1,7 + x_1,2,7 + x_1,4,7 + x_1,5,7 + x_1,8,7 + x_1,9,7 = 1
 R_row86: x_1,1,8 + x_1,2,8 + x_1,4,8 + x_1,5,8 + x_1,8,8 + x_1,9,8 = 1
 R_row87: x_2,1,2 + x_2,2,2 + x_2,4,2 + x_2,6,2 + x_2,8,2 + x_2,9,2 = 1
 R_row88: x_2,1,3 + x_2,2,3 + x_2,4,3 + x_2,6,3 + x_2,8,3 + x_2,9,3 = 1
 R_row89: x_2,1,5 + x_2,2,5 + x_2,4,5 + x_2,6,5 + x_2,8,5 + x_2,9,5 = 1
 R_row90: x_2,1,6 + x_2,2,6 + x_2,4,6 + x_2,6,6 + x_2,8,6 + x_2,9,6 = 1
 R_row91: x_2,1,7 + x_2,2,7 + x_2,4,7 + x_2,6,7 + x_2,8,7 + x_2,9,7 = 1
 R_row92: x_2,1,9 + x_2,2,9 + x_2,4,9 + x_2,6,9 + x_2,8,9 + x_2,9,9 = 1
 R_row93: x_3,3,1 + x_3,6,1 + x_3,8,1 + x_3,9,1 = 1
 R_row94: x_3,3,2 + x_3,6,2 + x_3,8,2 + x_3,9,2 = 1
 R_row95: x_3,3,5 + x_3,6,5 + x_3,8,5 + x_3,9,5 = 1
 R_row96: x_3,3,7 + x_3,6,7 + x_3,8,7 + x_3,9,7 = 1
 R_row97: x_4,1,3 + x_4,5,3 + x_4,9,3 = 1
 R_row98: x_4,1,5 + x_4,5,5 + x_4,9,5 = 1
 R_row99: x_4,1,7 + x_4,5,7 + x_4,9,7 = 1
 R_row100: x_5,2,4 + x_5,4,4 + x_5,7,4 + x_5,9,4 = 1
 R_row101: x_5,2,5 + x_5,4,5 + x_5,7,5 + x_5,9,5 = 1
 R_row102: x_5,2,6 + x_5,4,6 + x_5,7,6 + x_5,9,6 = 1
 R_row103: x_5,2,7 + x_5,4,7 + x_5,7,7 + x_5,9,7 = 1
 R_row104: x_6,4,1 + x_6,5,1 + x_6,6,1 + x_6,7,1 + x_6,8,1 + x_6,9,1 = 1
 R_row105: x_6,4,2 + x_6,5,2 + x_6,6,2 + x_6,7,2 + x_6,8,2 + x_6,9,2 = 1
 R_row106: x_6,4,3 + x_6,5,3 + x_6,6,3 + x_6,7,3 + x_6,8,3 + x_6,9,3 = 1
 R_row107: x_6,4,5 + x_6,5,5 + x_6,6,5 + x_6,7,5 + x_6,8,5 + x_6,9,5 = 1
 R_row108: x_6,4,6 + x_6,5,6 + x_6,6,6 + x_6,7,6 + x_6,8,6 + x_6,9,6 = 1
 R_row109: x_6,4,8 + x_6,5,8 + x_6,6,8 + x_6,7,8 + x_6,8,8 + x_6,9,8 = 1
 R_row110: x_7,1,1 + x_7,2,1 + x_7,5,1 = 1
 R_row111: x_7,1,3 + x_7,2,3 + x_7,5,3 = 1
 R_row112: x_7,1,4 + x_7,2,4 + x_7,5,4 = 1
 R_row113: x_8,1,2 + x_8,3,2 + x_8,6,2 + x_8,8,2 = 1
 R_row114: x_8,1,3 + x_8,3,3 + x_8,6,3 + x_8,8,3 = 1
 R_row115: x_8,1,4 + x_8,3,4 + x_8,6,4 + x_8,8,4 = 1
 R_row116: x_8,1,8 + x_8,3,8 + x_8,6,8 + x_8,8,8 = 1
 R_row117: x_9,2,1 + x_9,3,1 + x_9,5,1 + x_9,6,1 = 1
 R_row118: x_9,2,4 + x_9,3,4 + x_9,5,4 + x_9,6,4 = 1
 R_row119: x_9,2,5 + x_9,3,5 + x_9,5,5 + x_9,6,5 = 1
 R_row120: x_9,2,6 + x_9,3,6 + x_9,5,6 + x_9,6,6 = 1
 R_sub121: x_1,1,2 + x_1,2,2 + x_2,1,2 + x_2,2,2 + x_3,3,2 = 1
 R_sub122: x_1,1,4 + x_1,2,4 + x_2,1,4 + x_2,2,4 + x_3,3,4 = 1
 R_sub123: x_1,1,5 + x_1,2,5 + x_2,1,5 + x_2,2,5 + x_3,3,5 = 1
 R_sub124: x_1,1,6 + x_1,2,6 + x_2,1,6 + x_2,2,6 + x_3,3,6 = 1
 R_sub125: x_1,1,7 + x_1,2,7 + x_2,1,7 + x_2,2,7 + x_3,3,7 = 1
 R_sub126: x_1,4,1 + x_1,5,1 + x_2,4,1 + x_2,6,1 + x_3,6,1 = 1
 R_sub127: x_1,4,2 + x_1,5,2 + x_2,4,2 + x_2,6,2 + x_3,6,2 = 1
 R_sub128: x_1,4,3 + x_1,5,3 + x_2,4,3 + x_2,6,3 + x_3,6,3 = 1
 R_sub129: x_1,4,5 + x_1,5,5 + x_2,4,5 + x_2,6,5 + x_3,6,5 = 1
 R_sub130: x_1,4,7 + x_1,5,7 + x_2,4,7 + x_2,6,7 + x_3,6,7 = 1
 R_sub131: x_1,8,1 + x_1,9,1 + x_2,8,1 + x_2,9,1 + x_3,8,1 + x_3,9,1 = 1
 R_sub132: x_1,8,2 + x_1,9,2 + x_2,8,2 + x_2,9,2 + x_3,8,2 + x_3,9,2 = 1
 R_sub133: x_1,8,5 + x_1,9,5 + x_2,8,5 + x_2,9,5 + x_3,8,5 + x_3,9,5 = 1
 R_sub134: x_1,8,7 + x_1,9,7 + x_2,8,7 + x_2,9,7 + x_3,8,7 + x_3,9,7 = 1
 R_sub135: x_1,8,8 + x_1,9,8 + x_2,8,8 + x_2,9,8 + x_3,8,8 + x_3,9,8 = 1
 R_sub136: x_1,8,9 + x_1,9,9 + x_2,8,9 + x_2,9,9 + x_3,8,9 + x_3,9,9 = 1
 R_sub137: x_4,1,5 + x_5,2,5 = 1
 R_sub138: x_4,1,6 + x_5,2,6 = 1
 R_sub139: x_4,5,3 + x_5,4,3 + x_6,4,3 + x_6,5,3 + x_6,6,3 = 1
 R_sub140: x_4,5,5 + x_5,4,5 + x_6,4,5 + x_6,5,5 + x_6,6,5 = 1
 R_sub141: x_4,5,6 + x_5,4,6 + x_6,4,6 + x_6,5,6 + x_6,6,6 = 1
 R_sub142: x_4,5,7 + x_5,4,7 + x_6,4,7 + x_6,5,7 + x_6,6,7 = 1
 R_sub143: x_4,5,8 + x_5,4,8 + x_6,4,8 + x_6,5,8 + x_6,6,8 = 1
 R_sub144: x_4,9,1 + x_5,7,1 + x_5,9,1 + x_6,7,1 + x_6,8,1 + x_6,9,1 = 1
 R_sub145: x_4,9,2 + x_5,7,2 + x_5,9,2 + x_6,7,2 + x_6,8,2 + x_6,9,2 = 1
 R_sub146: x_4,9,3 + x_5,7,3 + x_5,9,3 + x_6,7,3 + x_6,8,3 + x_6,9,3 = 1
 R_sub147: x_4,9,4 + x_5,7,4 + x_5,9,4 + x_6,7,4 + x_6,8,4 + x_6,9,4 = 1
 R_sub148: x_4,9,5 + x_5,7,5 + x_5,9,5 + x_6,7,5 + x_6,8,5 + x_6,9,5 = 1
 R_sub149: x_4,9,7 + x_5,7,7 + x_5,9,7 + x_6,7,7 + x_6,8,7 + x_6,9,7 = 1
 R_sub150: x_7,1,1 + x_7,2,1 + x_8,1,1 + x_8,3,1 + x_9,2,1 + x_9,3,1 = 1
 R_sub151: x_7,1,2 + x_7,2,2 + x_8,1,2 + x_8,3,2 + x_9,2,2 + x_9,3,2 = 1
 R_sub152: x_7,1,3 + x_7,2,3 + x_8,1,3 + x_8,3,3 + x_9,2,3 + x_9,3,3 = 1
 R_sub153: x_7,1,4 + x_7,2,4 + x_8,1,4 + x_8,3,4 + x_9,2,4 + x_9,3,4 = 1
 R_sub154: x_7,1,5 + x_7,2,5 + x_8,1,5 + x_8,3,5 + x_9,2,5 + x_9,3,5 = 1
 R_sub155: x_7,1,8 + x_7,2,8 + x_8,1,8 + x_8,3,8 + x_9,2,8 + x_9,3,8 = 1
 R_sub156: x_7,5,1 + x_8,6,1 + x_9,5,1 + x_9,6,1 = 1
 R_sub157: x_7,5,3 + x_8,6,3 + x_9,5,3 + x_9,6,3 = 1
 R_sub158: x_7,5,4 + x_8,6,4 + x_9,5,4 + x_9,6,4 = 1
 R_sub159: x_7,5,6 + x_8,6,6 + x_9,5,6 + x_9,6,6 = 1
 R_sub160: x_8,8,4 = 1
Bounds
Binaries
 x_1,1,1 x_1,1,2 x_1,1,3 x_1,1,4 x_1,1,5 x_1,1,6 x_1,1,7 x_1,1,8 x_1,1,9
 x_1,2,1 x_1,2,2 x_1,2,3 x_1,2,4 x_1,2,5 x_1,2,6 x_1,2,7 x_1,2,8 x_1,2,9
 x_1,4,1 x_1,4,2 x_1,4,3 x_1,4,4 x_1,4,5 x_1,4,6 x_1,4,7 x_1,4,8 x_1,4,9
 x_1,5,1 x_1,5,2 x_1,5,3 x_1,5,4 x_1,5,5 x_1,5,6 x_1,5,7 x_1,5,8 x_1,5,9
 x_1,8,1 x_1,8,2 x_1,8,3 x_1,8,4 x_1,8,5 x_1,8,6 x_1,8,7 x_1,8,8 x_1,8,9
 x_1,9,1 x_1,9,2 x_1,9,3 x_1,9,4 x_1,9,5 x_1,9,6 x_1,9,7 x_1,9,8 x_1,9,9
 x_2,1,1 x_2,1,2 x_2,1,3 x_2,1,4 x_2,1,5 x_2,1,6 x_2,1,7 x_2,1,8 x_2,1,9
 x_2,2,1 x_2,2,2 x_2,2,3 x_2,2,4 x_2,2,5 x_2,2,6 x_2,2,7 x_2,2,8 x_2,2,9
 x_2,4,1 x_2,4,2 x_2,4,3 x_2,4,4 x_2,4,5 x_2,4,6 x_2,4,7 x_2,4,8 x_2,4,9
 x_2,6,1 x_2,6,2 x_2,6,3 x_2,6,4 x_2,6,5 x_2,6,6 x_2,6,7 x_2,6,8 x_2,6,9
 x_2,8,1 x_2,8,2 x_2,8,3 x_2,8,4 x_2,8,5 x_2,8,6 x_2,8,7 x_2,8,8 x_2,8,9
 x_2,9,1 x_2,9,2 x_2,9,3 x_2,9,4 x_2,9,5 x_2,9,6 x_2,9,7 x_2,9,8 x_2,9,9
 x_3,3,1 x_3,3,2 x_3,3,3 x_3,3,4 x_3,3,5 x_3,3,6 x_3,3,7 x_3,3,8 x_3,3,9
 x_3,6,1 x_3,6,2 x_3,6,3 x_3,6,4 x_3,6,5 x_3,6,6 x_3,6,7 x_3,6,8 x_3,6,9
 x_3,8,1 x_3,8,2 x_3,8,3 x_3,8,4 x_3,8,5 x_3,8,6 x_3,8,7 x_3,8,8 x_3,8,9
 x_3,9,1 x_3,9,2 x_3,9,3 x_3,9,4 x_3,9,5 x_3,9,6 x_3,9,7 x_3,9,8 x_3,9,9
 x_4,1,1 x_4,1,2 x_4,1,3 x_4,1,4 x_4,1,5 x_4,1,6 x_4,1,7 x_4,1,8 x_4,1,9
 x_4,5,1 x_4,5,2 x_4,5,3 x_4,5,4 x_4,5,5 x_4,5,6 x_4,5,7 x_4,5,8 x_4,5,9
 x_4,9,1 x_4,9,2 x_4,9,3 x_4,9,4 x_4,9,5 x_4,9,6 x_4,9,7 x_4,9,8 x_4,9,9
 x_5,2,1 x_5,2,2 x_5,2,3 x_5,2,4 x_5,2,5 x_5,2,6 x_5,2,7 x_5,2,8 x_5,2,9
 x_5,4,1 x_5,4,2 x_5,4,3 x_5,4,4 x_5,4,5 x_5,4,6 x_5,4,7 x_5,4,8 x_5,4,9
 x_5,7,1 x_5,7,2 x_5,7,3 x_5,7,4 x_5,7,5 x_5,7,6 x_5,7,7 x_5,7,8 x_5,7,9
 x_5,9,1 x_5,9,2 x_5,9,3 x_5,9,4 x_5,9,5 x_5,9,6 x_5,9,7 x_5,9,8 x_5,9,9
 x_6,4,1 x_6,4,2 x_6,4,3 x_6,4,4 x_6,4,5 x_6,4,6 x_6,4,7 x_6,4,8 x_6,4,9
 x_6,5,1 x_6,5,2 x_6,5,3 x_6,5,4 x_6,5,5 x_6,5,6 x_6,5,7 x_6,5,8 x_6,5,9
 x_6,6,1 x_6,6,2 x_6,6,3 x_6,6,4 x_6,6,5 x_6,6,6 x_6,6,7 x_6,6,8 x_6,6,9
 x_6,7,1 x_6,7,2 x_6,7,3 x_6,7,4 x_6,7,5 x_6,7,6 x_6,7,7 x_6,7,8 x_6,7,9
 x_6,8,1 x_6,8,2 x_6,8,3 x_6,8,4 x_6,8,5 x_6,8,6 x_6,8,7 x_6,8,8 x_6,8,9
 x_6,9,1 x_6,9,2 x_6,9,3 x_6,9,4 x_6,9,5 x_6,9,6 x_6,9,7 x_6,9,8 x_6,9,9
 x_7,1,1 x_7,1,2 x_7,1,3 x_7,1,4 x_7,1,5 x_7,1,6 x_7,1,7 x_7,1,8 x_7,1,9
 x_7,2,1 x_7,2,2 x_7,2,3 x_7,2,4 x_7,2,5 x_7,2,6 x_7,2,7 x_7,2,8 x_7,2,9
 x_7,5,1 x_7,5,2 x_7,5,3 x_7,5,4 x_7,5,5 x_7,5,6 x_7,5,7 x_7,5,8 x_7,5,9
 x_8,1,1 x_8,1,2 x_8,1,3 x_8,1,4 x_8,1,5 x_8,1,6 x_8,1,7 x_8,1,8 x_8,1,9
 x_8,3,1 x_8,3,2 x_8,3,3 x_8,3,4 x_8,3,5 x_8,3,6 x_8,3,7 x_8,3,8 x_8,3,9
 x_8,6,1 x_8,6,2 x_8,6,3 x_8,6,4 x_8,6,5 x_8,6,6 x_8,6,7 x_8,6,8 x_8,6,9
 x_8,8,1 x_8,8,2 x_8,8,3 x_8,8,4 x_8,8,5 x_8,8,6 x_8,8,7 x_8,8,8 x_8,8,9
 x_9,2,1 x_9,2,2 x_9,2,3 x_9,2,4 x_9,2,5 x_9,2,6 x_9,2,7 x_9,2,8 x_9,2,9
 x_9,3,1 x_9,3,2 x_9,3,3 x_9,3,4 x_9,3,5 x_9,3,6 x_9,3,7 x_9,3,8 x_9,3,9
 x_9,5,1 x_9,5,2 x_9,5,3 x_9,5,4 x_9,5,5 x_9,5,6 x_9,5,7 x_9,5,8 x_9,5,9
 x_9,6,1 x_9,6,2 x_9,6,3 x_9,6,4 x_9,6,5 x_9,6,6 x_9,6,7 x_9,6,8 x_9,6,9
End
